% File represents an instance of a Composite Structure problem to be solved by a CP framework
% Created on 2025-03-25 14:05:15.014
T = 56;
n = 36;
m = 60;
edges = [(2, 1),
(8, 7),
(14, 13),
(19, 20),
(25, 26),
(32, 31),
(3, 2),
(8, 9),
(14, 15),
(21, 20),
(27, 26),
(32, 33),
(4, 3),
(10, 9),
(16, 15),
(22, 21),
(27, 28),
(33, 34),
(4, 5),
(11, 10),
(17, 16),
(23, 22),
(28, 29),
(34, 35),
(6, 5),
(12, 11),
(17, 18),
(23, 24),
(30, 29),
(35, 36),
(7, 1),
(7, 13),
(19, 13),
(19, 25),
(31, 25),
(8, 2),
(14, 8),
(14, 20),
(20, 26),
(32, 26),
(3, 9),
(9, 15),
(21, 15),
(27, 21),
(27, 33),
(4, 10),
(10, 16),
(16, 22),
(28, 22),
(34, 28),
(11, 5),
(17, 11),
(17, 23),
(23, 29),
(35, 29),
(12, 6),
(12, 18),
(18, 24),
(30, 24),
(30, 36)];
counts = [|9, 3, 10, 5,
|9, 3, 13, 8,
|10, 6, 15, 12,
|11, 6, 15, 14,
|10, 6, 9, 11,
|11, 6, 11, 18,
|9, 5, 12, 11,
|11, 5, 13, 11,
|10, 5, 13, 11,
|10, 6, 15, 11,
|10, 6, 19, 11,
|12, 6, 19, 19,
|9, 5, 8, 11,
|11, 5, 13, 12,
|9, 2, 9, 11,
|10, 6, 14, 11,
|13, 6, 19, 11,
|12, 6, 17, 11,
|9, 5, 14, 15,
|8, 5, 9, 11,
|9, 5, 9, 11,
|10, 5, 9, 11,
|13, 6, 9, 11,
|12, 5, 8, 11,
|8, 5, 9, 12,
|8, 5, 9, 10,
|13, 6, 9, 14,
|12, 5, 9, 12,
|12, 5, 5, 7,
|13, 5, 8, 11,
|8, 5, 9, 13,
|13, 6, 9, 14,
|13, 5, 9, 14,
|13, 5, 9, 13,
|13, 5, 7, 13,
|13, 5, 7, 6|];
